set numbers := 1,2,3,4,5,6,7,8,9,10,11,12,13,14,15,16;

param Price :=
1	2925000 
2	10000000 
3	3750000 
4	3500000 
5	325000 
6	8950000 
7	1950000 
8	1750000 
9	4900000 
10	1650000 
11	1125000 
12	2500000 
13	1975000 
14	3750000 
15	1475000 
16	750000;

param Prof :=
1	44.24
2	53.38
3	43.02
4	42.61
5	37.34
6	49.10
7	23.78
8	23.45
9	28.67
10	38.88
11	38.01
12	40.29
13	39.42
14	42.36
15	38.59
16	37.39;

